/*********************************************
    * Lab01 - simple
    * Author: Coso
    * Creation Date: Mar, 2019
    *********************************************/
instance_name = "medium_instance_25_simple";

d = 5;
r = 15;

SCj = [180 180 190 191 172];
Dk = [37 49 22 94 14 25 27 89 35 81 49 88 78 67 45];

Cjk = [[71 87 38 58 64 81 89 36 89 75 68 57 69 36 58]
 [54 54 40 80 34 55 32 67 73 68 69 35 44 60 38]
 [54 40 64 59 38 32 46 52 74 89 50 32 68 75 66]
 [41 34 82 32 53 77 40 86 68 43 53 65 68 67 40]
 [79 48 59 43 69 54 82 54 46 34 58 63 43 79 49]];
